p cnf 149 384
a 11 14 28 30 33 36 65 74 81 90 2 4 10 120 21 143 1 9 20 27 0
d 112 1 9 0
d 130 20 27 0
d 3 2 0
d 5 4 0
d 6 2 4 0
d 7 1 2 4 0
d 8 1 2 4 0
d 12 11 0
d 13 10 11 0
d 15 14 0
d 16 10 11 14 0
d 17 9 10 11 14 0
d 18 9 10 11 14 0
d 19 1 2 4 9 10 11 14 0
d 22 21 11 0
d 23 21 11 14 0
d 24 20 21 11 14 0
d 25 20 21 11 14 0
d 26 1 2 4 9 10 11 14 20 21 0
d 29 28 0
d 31 30 0
d 32 28 30 0
d 34 33 0
d 35 28 30 33 0
d 37 36 0
d 38 28 30 33 36 0
d 39 27 28 30 33 36 0
d 40 27 28 30 33 36 0
d 41 1 2 4 9 10 11 14 20 21 27 28 30 33 36 0
d 42 11 0
d 43 11 14 0
d 44 11 14 0
d 45 11 14 0
d 46 28 11 0
d 47 28 11 14 0
d 48 28 11 14 0
d 49 11 14 28 0
d 50 11 14 0
d 51 11 14 28 0
d 52 11 14 28 30 0
d 53 11 14 28 30 0
d 54 11 14 28 30 0
d 55 33 11 0
d 56 33 11 14 0
d 57 28 30 33 11 14 0
d 58 28 30 33 11 14 0
d 59 11 14 28 30 33 0
d 60 33 36 0
d 61 11 14 28 30 0
d 62 33 36 11 14 28 30 0
d 63 33 36 11 14 28 30 0
d 64 11 14 28 30 33 36 0
d 66 65 11 0
d 67 65 11 14 0
d 68 65 11 14 28 30 33 36 0
d 69 65 11 14 28 30 33 36 0
d 70 11 14 28 30 33 36 65 0
d 71 33 36 0
d 72 65 0
d 73 33 36 65 0
d 75 33 36 65 74 0
d 76 11 14 28 30 33 36 65 74 0
d 77 11 14 28 30 33 36 65 74 0
d 78 11 14 28 30 33 36 65 74 0
d 79 74 0
d 80 65 74 0
d 82 81 11 0
d 83 81 11 14 0
d 84 65 74 81 11 14 0
d 85 28 30 33 36 65 74 81 11 14 0
d 86 28 30 33 36 65 74 81 11 14 0
d 87 11 14 28 30 33 36 65 74 81 0
d 88 33 36 65 74 0
d 89 81 0
d 91 81 90 0
d 92 81 90 11 14 28 30 0
d 93 33 36 65 74 81 90 11 14 28 30 0
d 94 33 36 65 74 81 90 11 14 28 30 0
d 95 11 14 28 30 33 36 65 74 81 90 0
d 96 65 74 81 0
d 97 90 0
d 98 65 74 81 90 0
d 99 2 11 0
d 100 2 11 14 0
d 101 2 11 14 28 30 33 36 0
d 102 65 74 81 90 2 11 14 28 30 33 36 0
d 103 65 74 81 90 2 11 14 28 30 33 36 0
d 104 11 14 28 30 33 36 65 74 81 90 2 0
d 105 81 90 0
d 106 81 90 2 0
d 107 81 90 2 4 0
d 108 11 14 28 30 33 36 65 74 0
d 109 81 90 2 4 11 14 28 30 33 36 65 74 0
d 110 81 90 2 4 11 14 28 30 33 36 65 74 0
d 111 11 14 28 30 33 36 65 74 81 90 2 4 0
d 113 28 30 33 36 65 74 81 90 0
d 114 1 9 28 30 33 36 65 74 81 90 0
d 115 2 4 10 11 14 0
d 116 2 4 10 11 14 28 30 33 36 65 74 81 90 0
d 117 1 9 28 30 33 36 65 74 81 90 2 4 10 11 14 0
d 118 11 14 28 30 33 36 65 74 81 90 2 4 1 9 10 0
d 119 10 0
d 121 10 120 0
d 122 10 120 11 14 28 30 0
d 123 81 90 2 4 0
d 124 33 36 65 74 81 90 2 4 0
d 125 10 120 11 14 28 30 33 36 65 74 81 90 2 4 0
d 126 33 36 65 74 81 90 2 4 0
d 127 10 120 11 14 28 30 33 36 65 74 81 90 2 4 0
d 128 10 120 11 14 28 30 33 36 65 74 81 90 2 4 0
d 129 11 14 28 30 33 36 65 74 81 90 2 4 1 9 10 120 0
d 131 2 4 10 0
d 132 120 0
d 133 2 4 10 120 0
d 134 65 74 81 90 2 4 10 120 0
d 135 20 27 65 74 81 90 2 4 10 120 0
d 136 21 11 14 28 30 33 36 0
d 137 21 11 14 28 30 33 36 65 74 81 90 2 4 10 120 0
d 138 20 27 65 74 81 90 2 4 10 120 21 11 14 28 30 33 36 0
d 139 11 14 28 30 33 36 65 74 81 90 2 4 1 9 10 120 20 27 21 0
d 140 10 120 0
d 141 21 0
d 142 10 120 21 0
d 144 10 120 21 143 0
d 145 81 90 2 4 10 120 21 143 0
d 146 11 14 28 30 33 36 65 74 81 90 2 4 10 120 21 143 0
d 147 11 14 28 30 33 36 65 74 81 90 2 4 10 120 21 143 0
d 148 11 14 28 30 33 36 65 74 81 90 2 4 1 9 10 120 20 27 21 143 0
d 149 1 2 4 9 10 11 14 20 21 27 28 30 33 36 65 74 81 90 120 143 0
3 2 0
-3 -2 0
5 4 0
-5 -4 0
-6 3 0
-6 5 0
6 -3 -5 0
7 -1 -6 0
7 1 6 0
-7 -1 6 0
-7 1 -6 0
8 7 0
-8 -7 0
12 11 0
-12 -11 0
-13 10 0
-13 12 0
13 -10 -12 0
15 14 0
-15 -14 0
-16 13 0
-16 15 0
16 -13 -15 0
17 -9 -16 0
17 9 16 0
-17 -9 16 0
-17 9 -16 0
18 17 0
-18 -17 0
19 -8 0
19 -18 0
-19 8 18 0
-22 21 0
-22 12 0
22 -21 -12 0
-23 22 0
-23 15 0
23 -22 -15 0
24 -20 -23 0
24 20 23 0
-24 -20 23 0
-24 20 -23 0
25 24 0
-25 -24 0
26 -19 0
26 -25 0
-26 19 25 0
29 28 0
-29 -28 0
31 30 0
-31 -30 0
-32 29 0
-32 31 0
32 -29 -31 0
34 33 0
-34 -33 0
-35 32 0
-35 34 0
35 -32 -34 0
37 36 0
-37 -36 0
-38 35 0
-38 37 0
38 -35 -37 0
39 -27 -38 0
39 27 38 0
-39 -27 38 0
-39 27 -38 0
40 39 0
-40 -39 0
41 -26 0
41 -40 0
-41 26 40 0
42 -11 -11 0
42 11 11 0
-42 -11 11 0
-42 11 -11 0
-43 12 0
-43 14 0
43 -12 -14 0
44 -43 -43 0
44 43 43 0
-44 -43 43 0
-44 43 -43 0
-45 42 0
-45 44 0
45 -42 -44 0
-46 28 0
-46 12 0
46 -28 -12 0
-47 46 0
-47 15 0
47 -46 -15 0
48 -47 -47 0
48 47 47 0
-48 -47 47 0
-48 47 -47 0
-49 45 0
-49 48 0
49 -45 -48 0
-50 12 0
-50 15 0
50 -12 -15 0
-51 50 0
-51 29 0
51 -50 -29 0
-52 51 0
-52 30 0
52 -51 -30 0
53 -52 -52 0
53 52 52 0
-53 -52 52 0
-53 52 -52 0
-54 49 0
-54 53 0
54 -49 -53 0
-55 33 0
-55 12 0
55 -33 -12 0
-56 55 0
-56 15 0
56 -55 -15 0
-57 32 0
-57 56 0
57 -32 -56 0
58 -57 -57 0
58 57 57 0
-58 -57 57 0
-58 57 -57 0
-59 54 0
-59 58 0
59 -54 -58 0
-60 34 0
-60 36 0
60 -34 -36 0
-61 51 0
-61 31 0
61 -51 -31 0
-62 60 0
-62 61 0
62 -60 -61 0
63 -62 -62 0
63 62 62 0
-63 -62 62 0
-63 62 -62 0
-64 59 0
-64 63 0
64 -59 -63 0
-66 65 0
-66 12 0
66 -65 -12 0
-67 66 0
-67 15 0
67 -66 -15 0
-68 67 0
-68 38 0
68 -67 -38 0
69 -68 -68 0
69 68 68 0
-69 -68 68 0
-69 68 -68 0
-70 64 0
-70 69 0
70 -64 -69 0
-71 34 0
-71 37 0
71 -34 -37 0
72 65 0
-72 -65 0
-73 71 0
-73 72 0
73 -71 -72 0
-75 73 0
-75 74 0
75 -73 -74 0
-76 61 0
-76 75 0
76 -61 -75 0
77 -76 -76 0
77 76 76 0
-77 -76 76 0
-77 76 -76 0
-78 70 0
-78 77 0
78 -70 -77 0
79 74 0
-79 -74 0
-80 72 0
-80 79 0
80 -72 -79 0
-82 81 0
-82 12 0
82 -81 -12 0
-83 82 0
-83 15 0
83 -82 -15 0
-84 80 0
-84 83 0
84 -80 -83 0
-85 38 0
-85 84 0
85 -38 -84 0
86 -85 -85 0
86 85 85 0
-86 -85 85 0
-86 85 -85 0
-87 78 0
-87 86 0
87 -78 -86 0
-88 73 0
-88 79 0
88 -73 -79 0
89 81 0
-89 -81 0
-91 89 0
-91 90 0
91 -89 -90 0
-92 91 0
-92 61 0
92 -91 -61 0
-93 88 0
-93 92 0
93 -88 -92 0
94 -93 -93 0
94 93 93 0
-94 -93 93 0
-94 93 -93 0
-95 87 0
-95 94 0
95 -87 -94 0
-96 80 0
-96 89 0
96 -80 -89 0
97 90 0
-97 -90 0
-98 96 0
-98 97 0
98 -96 -97 0
-99 2 0
-99 12 0
99 -2 -12 0
-100 99 0
-100 15 0
100 -99 -15 0
-101 100 0
-101 38 0
101 -100 -38 0
-102 98 0
-102 101 0
102 -98 -101 0
103 -102 -102 0
103 102 102 0
-103 -102 102 0
-103 102 -102 0
-104 95 0
-104 103 0
104 -95 -103 0
-105 89 0
-105 97 0
105 -89 -97 0
-106 105 0
-106 3 0
106 -105 -3 0
-107 106 0
-107 4 0
107 -106 -4 0
-108 61 0
-108 88 0
108 -61 -88 0
-109 107 0
-109 108 0
109 -107 -108 0
110 -109 -109 0
110 109 109 0
-110 -109 109 0
-110 109 -109 0
-111 104 0
-111 110 0
111 -104 -110 0
-113 38 0
-113 98 0
113 -38 -98 0
-114 112 0
-114 113 0
114 -112 -113 0
-115 6 0
-115 16 0
115 -6 -16 0
-116 115 0
-116 113 0
116 -115 -113 0
117 -114 -116 0
117 114 116 0
-117 -114 116 0
-117 114 -116 0
-118 111 0
-118 117 0
118 -111 -117 0
119 10 0
-119 -10 0
-121 119 0
-121 120 0
121 -119 -120 0
-122 121 0
-122 61 0
122 -121 -61 0
-123 106 0
-123 5 0
123 -106 -5 0
124 -88 -123 0
124 88 123 0
-124 -88 123 0
-124 88 -123 0
-125 122 0
-125 124 0
125 -122 -124 0
-126 88 0
-126 123 0
126 -88 -123 0
-127 122 0
-127 126 0
127 -122 -126 0
128 -125 -127 0
128 125 127 0
-128 -125 127 0
-128 125 -127 0
-129 118 0
-129 128 0
129 -118 -128 0
-131 6 0
-131 119 0
131 -6 -119 0
132 120 0
-132 -120 0
-133 131 0
-133 132 0
133 -131 -132 0
-134 98 0
-134 133 0
134 -98 -133 0
-135 130 0
-135 134 0
135 -130 -134 0
-136 23 0
-136 38 0
136 -23 -38 0
-137 136 0
-137 134 0
137 -136 -134 0
138 -135 -137 0
138 135 137 0
-138 -135 137 0
-138 135 -137 0
-139 129 0
-139 138 0
139 -129 -138 0
-140 119 0
-140 132 0
140 -119 -132 0
141 21 0
-141 -21 0
-142 140 0
-142 141 0
142 -140 -141 0
-144 142 0
-144 143 0
144 -142 -143 0
-145 123 0
-145 144 0
145 -123 -144 0
-146 108 0
-146 145 0
146 -108 -145 0
147 -146 -146 0
147 146 146 0
-147 -146 146 0
-147 146 -146 0
-148 139 0
-148 147 0
148 -139 -147 0
149 -41 0
149 -148 0
-149 41 148 0
149 0
